(set-logic QF_NIA)
(set-info :source |
     Constraint systems stating that a matrix interpretation is
     compatible with a rewriting system (weakly compatible with
     all rules, strictly compatible with at least one).

     Contributed by Johannes Waldmann at HTKW Leipzig.
   |)
(set-info :smt-lib-version 2.0)
(set-info :category "crafted")
(set-info :status sat)
(declare-fun n0 () Int)
(assert (>= n0 0))
(declare-fun n1 () Int)
(assert (>= n1 0))
(declare-fun n2 () Int)
(assert (>= n2 0))
(declare-fun n3 () Int)
(assert (>= n3 0))
(declare-fun n4 () Int)
(assert (>= n4 0))
(declare-fun n5 () Int)
(assert (>= n5 0))
(declare-fun n6 () Int)
(assert (>= n6 0))
(declare-fun n7 () Int)
(assert (>= n7 0))
(declare-fun n8 () Int)
(assert (= n8 (* n7 n6)))
(declare-fun n9 () Int)
(assert (= n9 (+ n6 n8)))
(declare-fun n10 () Int)
(assert (= n10 (* n7 n7)))
(declare-fun n11 () Int)
(assert (= n11 (* n5 n4)))
(declare-fun n12 () Int)
(assert (= n12 (+ n4 n11)))
(declare-fun n13 () Int)
(assert (= n13 (* n5 n5)))
(declare-fun n14 () Int)
(assert (= n14 (* n5 n6)))
(declare-fun n15 () Int)
(assert (= n15 (+ n4 n14)))
(declare-fun n16 () Int)
(assert (= n16 (* n5 n7)))
(declare-fun n17 () Int)
(assert (= n17 (* n16 n4)))
(declare-fun n18 () Int)
(assert (= n18 (+ n15 n17)))
(declare-fun n19 () Int)
(assert (= n19 (* n16 n5)))
(declare-fun n20 () Int)
(assert (= n20 (* n5 n9)))
(declare-fun n21 () Int)
(assert (= n21 (+ n4 n20)))
(declare-fun n22 () Int)
(assert (= n22 (* n5 n10)))
(declare-fun n23 () Int)
(assert (= n23 (* n13 n4)))
(declare-fun n24 () Int)
(assert (= n24 (+ n12 n23)))
(declare-fun n25 () Int)
(assert (= n25 (* n13 n5)))
(declare-fun n26 () Int)
(assert (= n26 (* n10 n6)))
(declare-fun n27 () Int)
(assert (= n27 (+ n9 n26)))
(declare-fun n28 () Int)
(assert (= n28 (* n10 n7)))
(declare-fun n29 () Int)
(assert (= n29 (* n1 n12)))
(declare-fun n30 () Int)
(assert (= n30 (+ n0 n29)))
(declare-fun n31 () Int)
(assert (= n31 (* n1 n13)))
(declare-fun n32 () Int)
(assert (= n32 (* n7 n4)))
(declare-fun n33 () Int)
(assert (= n33 (+ n6 n32)))
(declare-fun n34 () Int)
(assert (= n34 (* n7 n5)))
(declare-fun n35 () Int)
(assert (= n35 (* n7 n18)))
(declare-fun n36 () Int)
(assert (= n36 (+ n6 n35)))
(declare-fun n37 () Int)
(assert (= n37 (* n7 n19)))
(declare-fun n38 () Int)
(assert (= n38 (* n10 n27)))
(declare-fun n39 () Int)
(assert (= n39 (+ n9 n38)))
(declare-fun n40 () Int)
(assert (= n40 (* n10 n28)))
(declare-fun n41 () Int)
(assert (= n41 (* n13 n6)))
(declare-fun n42 () Int)
(assert (= n42 (+ n12 n41)))
(declare-fun n43 () Int)
(assert (= n43 (* n13 n7)))
(declare-fun n44 () Int)
(assert (= n44 (* n13 n9)))
(declare-fun n45 () Int)
(assert (= n45 (+ n12 n44)))
(declare-fun n46 () Int)
(assert (= n46 (* n13 n10)))
(declare-fun n47 () Int)
(assert (= n47 (* n16 n24)))
(declare-fun n48 () Int)
(assert (= n48 (+ n15 n47)))
(declare-fun n49 () Int)
(assert (= n49 (* n16 n25)))
(declare-fun n50 () Int)
(assert (= n50 (* n1 n36)))
(declare-fun n51 () Int)
(assert (= n51 (+ n0 n50)))
(declare-fun n52 () Int)
(assert (= n52 (* n1 n37)))
(declare-fun n53 () Int)
(assert (= n53 (* n7 n21)))
(declare-fun n54 () Int)
(assert (= n54 (+ n6 n53)))
(declare-fun n55 () Int)
(assert (= n55 (* n7 n22)))
(declare-fun n56 () Int)
(assert (= n56 (* n7 n45)))
(declare-fun n57 () Int)
(assert (= n57 (+ n6 n56)))
(declare-fun n58 () Int)
(assert (= n58 (* n7 n46)))
(declare-fun n59 () Int)
(assert (= n59 (* n31 n6)))
(declare-fun n60 () Int)
(assert (= n60 (+ n30 n59)))
(declare-fun n61 () Int)
(assert (= n61 (* n31 n7)))
(declare-fun n62 () Int)
(assert (= n62 (* n55 n6)))
(declare-fun n63 () Int)
(assert (= n63 (+ n54 n62)))
(declare-fun n64 () Int)
(assert (= n64 (* n55 n7)))
(declare-fun n65 () Int)
(assert (= n65 (* n1 n21)))
(declare-fun n66 () Int)
(assert (= n66 (+ n0 n65)))
(declare-fun n67 () Int)
(assert (= n67 (* n1 n22)))
(declare-fun n68 () Int)
(assert (= n68 (* n1 n27)))
(declare-fun n69 () Int)
(assert (= n69 (+ n0 n68)))
(declare-fun n70 () Int)
(assert (= n70 (* n1 n28)))
(declare-fun n71 () Int)
(assert (= n71 (* n31 n12)))
(declare-fun n72 () Int)
(assert (= n72 (+ n30 n71)))
(declare-fun n73 () Int)
(assert (= n73 (* n31 n13)))
(declare-fun n74 () Int)
(assert (= n74 (* n61 n24)))
(declare-fun n75 () Int)
(assert (= n75 (+ n60 n74)))
(declare-fun n76 () Int)
(assert (= n76 (* n61 n25)))
(assert (>= n72 n75))
(assert (>= n73 n76))
(declare-fun n77 () Int)
(assert (= n77 (* n31 n33)))
(declare-fun n78 () Int)
(assert (= n78 (+ n30 n77)))
(declare-fun n79 () Int)
(assert (= n79 (* n31 n34)))
(declare-fun n80 () Int)
(assert (= n80 (* n67 n42)))
(declare-fun n81 () Int)
(assert (= n81 (+ n66 n80)))
(declare-fun n82 () Int)
(assert (= n82 (* n67 n43)))
(assert (>= n78 n81))
(assert (>= n79 n82))
(declare-fun n83 () Int)
(assert (= n83 (* n70 n15)))
(declare-fun n84 () Int)
(assert (= n84 (+ n69 n83)))
(declare-fun n85 () Int)
(assert (= n85 (* n70 n16)))
(assert (>= n51 n84))
(assert (>= n52 n85))
(declare-fun n86 () Int)
(assert (= n86 (* n1 n6)))
(declare-fun n87 () Int)
(assert (= n87 (+ n0 n86)))
(declare-fun n88 () Int)
(assert (= n88 (* n1 n7)))
(assert (>= n51 n87))
(assert (>= n52 n88))
(assert (>= n18 n27))
(assert (>= n19 n28))
(declare-fun n89 () Int)
(assert (= n89 (* n22 n4)))
(declare-fun n90 () Int)
(assert (= n90 (+ n21 n89)))
(declare-fun n91 () Int)
(assert (= n91 (* n22 n5)))
(assert (>= n90 n39))
(assert (>= n91 n40))
(declare-fun n92 () Int)
(assert (= n92 (* n13 n24)))
(declare-fun n93 () Int)
(assert (= n93 (+ n12 n92)))
(declare-fun n94 () Int)
(assert (= n94 (* n13 n25)))
(declare-fun n95 () Int)
(assert (= n95 (* n13 n48)))
(declare-fun n96 () Int)
(assert (= n96 (+ n12 n95)))
(declare-fun n97 () Int)
(assert (= n97 (* n13 n49)))
(assert (>= n93 n96))
(assert (>= n94 n97))
(declare-fun n98 () Int)
(assert (= n98 (* n13 n18)))
(declare-fun n99 () Int)
(assert (= n99 (+ n12 n98)))
(declare-fun n100 () Int)
(assert (= n100 (* n13 n19)))
(declare-fun n101 () Int)
(assert (= n101 (* n46 n42)))
(declare-fun n102 () Int)
(assert (= n102 (+ n45 n101)))
(declare-fun n103 () Int)
(assert (= n103 (* n46 n43)))
(assert (>= n99 n102))
(assert (>= n100 n103))
(declare-fun n104 () Int)
(assert (= n104 (* n58 n12)))
(declare-fun n105 () Int)
(assert (= n105 (+ n57 n104)))
(declare-fun n106 () Int)
(assert (= n106 (* n58 n13)))
(assert (>= n48 n105))
(assert (>= n49 n106))
(declare-fun n107 () Int)
(assert (= n107 (* n16 n18)))
(declare-fun n108 () Int)
(assert (= n108 (+ n15 n107)))
(declare-fun n109 () Int)
(assert (= n109 (* n16 n19)))
(declare-fun n110 () Int)
(assert (= n110 (* n64 n15)))
(declare-fun n111 () Int)
(assert (= n111 (+ n63 n110)))
(declare-fun n112 () Int)
(assert (= n112 (* n64 n16)))
(assert (>= n108 n111))
(assert (>= n109 n112))
(declare-fun n113 () Int)
(assert (= n113 (* n22 n33)))
(declare-fun n114 () Int)
(assert (= n114 (+ n21 n113)))
(declare-fun n115 () Int)
(assert (= n115 (* n22 n34)))
(declare-fun n116 () Int)
(assert (= n116 (* n10 n39)))
(declare-fun n117 () Int)
(assert (= n117 (+ n9 n116)))
(declare-fun n118 () Int)
(assert (= n118 (* n10 n40)))
(assert (>= n114 n117))
(assert (>= n115 n118))
(assert (or (> n72 n75) (> n78 n81) (> n51 n84) (> n51 n87)))
(check-sat)
(exit)
